NAME /Users/henri/Research/solvers/instances/idol-instances/robust/collection/spp_dkp_Lefebvre_et_al_2026/shortest_path_5_7/uncertainty_sets/discrete_knapsack
ROWS
 N  OBJ
 L  primal_lower
COLUMNS
    MARKER    'MARKER'                 'INTORG'
    y[0,1]     OBJ        0
    y[0,1]     primal_lower -1.79
    y[0,2]     OBJ        0
    y[0,2]     primal_lower -1.47
    y[0,3]     OBJ        0
    y[0,3]     primal_lower -5.5
    y[0,4]     OBJ        0
    y[0,4]     primal_lower -5.29
    y[1,0]     OBJ        0
    y[1,0]     primal_lower -4.06
    y[1,3]     OBJ        0
    y[1,3]     primal_lower -3.37
    y[2,0]     OBJ        0
    y[2,0]     primal_lower -3.25
    y[2,3]     OBJ        0
    y[2,3]     primal_lower -1.25
    y[2,4]     OBJ        0
    y[2,4]     primal_lower -4.57
    y[3,0]     OBJ        0
    y[3,0]     primal_lower -5.32
    y[3,1]     OBJ        0
    y[3,1]     primal_lower -4.28
    y[3,2]     OBJ        0
    y[3,2]     primal_lower -2.96
    y[3,4]     OBJ        0
    y[3,4]     primal_lower -2.63
    y[4,0]     OBJ        0
    y[4,0]     primal_lower -4.76
    y[4,2]     OBJ        0
    y[4,2]     primal_lower -5.02
    y[4,3]     OBJ        0
    y[4,3]     primal_lower -1.36
    u[0,1]     OBJ        0
    u[0,1]     primal_lower 69
    u[0,2]     OBJ        0
    u[0,2]     primal_lower 2
    u[0,3]     OBJ        0
    u[0,3]     primal_lower 66
    u[0,4]     OBJ        0
    u[0,4]     primal_lower 18
    u[1,0]     OBJ        0
    u[1,0]     primal_lower 4
    u[1,3]     OBJ        0
    u[1,3]     primal_lower 68
    u[2,0]     OBJ        0
    u[2,0]     primal_lower 25
    u[2,3]     OBJ        0
    u[2,3]     primal_lower 60
    u[2,4]     OBJ        0
    u[2,4]     primal_lower 26
    u[3,0]     OBJ        0
    u[3,0]     primal_lower 9
    u[3,1]     OBJ        0
    u[3,1]     primal_lower 95
    u[3,2]     OBJ        0
    u[3,2]     primal_lower 93
    u[3,4]     OBJ        0
    u[3,4]     primal_lower 63
    u[4,0]     OBJ        0
    u[4,0]     primal_lower 57
    u[4,2]     OBJ        0
    u[4,2]     primal_lower 21
    u[4,3]     OBJ        0
    u[4,3]     primal_lower 3
    MARKER    'MARKER'                 'INTEND'
RHS
    RHS       primal_lower 95
BOUNDS
 LI BND       y[0,1]     0
 UI BND       y[0,1]     1
 LI BND       y[0,2]     0
 UI BND       y[0,2]     1
 LI BND       y[0,3]     0
 UI BND       y[0,3]     1
 LI BND       y[0,4]     0
 UI BND       y[0,4]     1
 LI BND       y[1,0]     0
 UI BND       y[1,0]     1
 LI BND       y[1,3]     0
 UI BND       y[1,3]     1
 LI BND       y[2,0]     0
 UI BND       y[2,0]     1
 LI BND       y[2,3]     0
 UI BND       y[2,3]     1
 LI BND       y[2,4]     0
 UI BND       y[2,4]     1
 LI BND       y[3,0]     0
 UI BND       y[3,0]     1
 LI BND       y[3,1]     0
 UI BND       y[3,1]     1
 LI BND       y[3,2]     0
 UI BND       y[3,2]     1
 LI BND       y[3,4]     0
 UI BND       y[3,4]     1
 LI BND       y[4,0]     0
 UI BND       y[4,0]     1
 LI BND       y[4,2]     0
 UI BND       y[4,2]     1
 LI BND       y[4,3]     0
 UI BND       y[4,3]     1
 LI BND       u[0,1]     0
 UI BND       u[0,1]     1
 LI BND       u[0,2]     0
 UI BND       u[0,2]     1
 LI BND       u[0,3]     0
 UI BND       u[0,3]     1
 LI BND       u[0,4]     0
 UI BND       u[0,4]     1
 LI BND       u[1,0]     0
 UI BND       u[1,0]     1
 LI BND       u[1,3]     0
 UI BND       u[1,3]     1
 LI BND       u[2,0]     0
 UI BND       u[2,0]     1
 LI BND       u[2,3]     0
 UI BND       u[2,3]     1
 LI BND       u[2,4]     0
 UI BND       u[2,4]     1
 LI BND       u[3,0]     0
 UI BND       u[3,0]     1
 LI BND       u[3,1]     0
 UI BND       u[3,1]     1
 LI BND       u[3,2]     0
 UI BND       u[3,2]     1
 LI BND       u[3,4]     0
 UI BND       u[3,4]     1
 LI BND       u[4,0]     0
 UI BND       u[4,0]     1
 LI BND       u[4,2]     0
 UI BND       u[4,2]     1
 LI BND       u[4,3]     0
 UI BND       u[4,3]     1
ENDATA
